(set-info :Origin "This instance was generated by: BanditFuzz-- an RL fuzzer for SMT solvers" )
(set-info :Author "Joe Scott, Fed Mora, Vijay Ganesh" )
(set-info :Contact "Joe Scott, joseph.scott@uwaterloo.ca")
(set-logic QF_BV)
(declare-const bool_0 Bool)
(declare-const bool_1 Bool)
(declare-const bool_2 Bool)
(declare-const bool_3 Bool)
(declare-const bool_4 Bool)
(declare-const bv_0 (_ BitVec 32))
(declare-const bv_1 (_ BitVec 32))
(declare-const bv_2 (_ BitVec 32))
(declare-const bv_3 (_ BitVec 32))
(declare-const bv_4 (_ BitVec 32))
(assert (not (bvuge (bvashr #x99ca8878  #x62bda42b ) (bvsmod #x0ff56c6c  #x0dc15306 ))))
(assert (bvsle (bvashr (bvlshr #xfb1106eb  #x20bfee2c ) (bvor bv_1 bv_1)) (bvsmod (bvsub bv_0 bv_1) (bvsdiv bv_3 #x725e658a ))))
(assert (not (bvugt (bvmul #x591035c1  bv_3) (bvnand bv_2 bv_2))))
(assert (bvugt (bvnor (bvshl #x6e7da8a2  bv_4) (bvor bv_2 bv_1)) (bvadd (bvnor bv_3 bv_0) (bvand #xa14a012d  #x613c992e ))))
(assert (bvule (bvor (bvmul bv_2 bv_3) (bvlshr #x1e935649  bv_4)) (bvor (bvnand bv_1 #x19142823 ) (bvor #xabf966f0  bv_4))))
(check-sat)
(exit)
